100 100 100
50
39 25 27
11 84 96
36 10 34
12 26 26
64 73 56
26 22 2
30 23 17
46 27 47
47 9 37
29 1 18
88 69 64
47 95 99
20 95 93
23 8 32
67 73 55
69 46 95
47 40 40
10 32 36
10 25 36
45 100 84
15 34 12
93 93 38
82 43 95
98 38 97
69 90 72
66 90 25
26 33 48
37 10 21
84 17 69
47 11 24
19 37 39
4 27 38
51 97 51
38 74 95
23 42 26
72 86 64
6 86 67
86 25 88
5 74 88
92 90 10
32 12 35
24 80 93
24 50 29
66 77 86
47 82 77
7 41 6
38 10 19
92 80 39
46 3 17
13 21 1
